60

 0   1   2   3   4   5   6   7   8   9   1   2   3   4   5   6   7   8   9  10   2   3   4   5   6   7   8   9  10  11   3   4   5   6   7   8   9  10  11  12   4   5   6   7   8   9  10  11  12  13   5   6   7   8   9  10  11  12  13  14  
 1   0   1   2   3   4   5   6   7   8   2   1   2   3   4   5   6   7   8   9   3   2   3   4   5   6   7   8   9  10   4   3   4   5   6   7   8   9  10  11   5   4   5   6   7   8   9  10  11  12   6   5   6   7   8   9  10  11  12  13  
 2   1   0   1   2   3   4   5   6   7   3   2   1   2   3   4   5   6   7   8   4   3   2   3   4   5   6   7   8   9   5   4   3   4   5   6   7   8   9  10   6   5   4   5   6   7   8   9  10  11   7   6   5   6   7   8   9  10  11  12  
 3   2   1   0   1   2   3   4   5   6   4   3   2   1   2   3   4   5   6   7   5   4   3   2   3   4   5   6   7   8   6   5   4   3   4   5   6   7   8   9   7   6   5   4   5   6   7   8   9  10   8   7   6   5   6   7   8   9  10  11  
 4   3   2   1   0   1   2   3   4   5   5   4   3   2   1   2   3   4   5   6   6   5   4   3   2   3   4   5   6   7   7   6   5   4   3   4   5   6   7   8   8   7   6   5   4   5   6   7   8   9   9   8   7   6   5   6   7   8   9  10  
 5   4   3   2   1   0   1   2   3   4   6   5   4   3   2   1   2   3   4   5   7   6   5   4   3   2   3   4   5   6   8   7   6   5   4   3   4   5   6   7   9   8   7   6   5   4   5   6   7   8  10   9   8   7   6   5   6   7   8   9  
 6   5   4   3   2   1   0   1   2   3   7   6   5   4   3   2   1   2   3   4   8   7   6   5   4   3   2   3   4   5   9   8   7   6   5   4   3   4   5   6  10   9   8   7   6   5   4   5   6   7  11  10   9   8   7   6   5   6   7   8  
 7   6   5   4   3   2   1   0   1   2   8   7   6   5   4   3   2   1   2   3   9   8   7   6   5   4   3   2   3   4  10   9   8   7   6   5   4   3   4   5  11  10   9   8   7   6   5   4   5   6  12  11  10   9   8   7   6   5   6   7  
 8   7   6   5   4   3   2   1   0   1   9   8   7   6   5   4   3   2   1   2  10   9   8   7   6   5   4   3   2   3  11  10   9   8   7   6   5   4   3   4  12  11  10   9   8   7   6   5   4   5  13  12  11  10   9   8   7   6   5   6  
 9   8   7   6   5   4   3   2   1   0  10   9   8   7   6   5   4   3   2   1  11  10   9   8   7   6   5   4   3   2  12  11  10   9   8   7   6   5   4   3  13  12  11  10   9   8   7   6   5   4  14  13  12  11  10   9   8   7   6   5  
 1   2   3   4   5   6   7   8   9  10   0   1   2   3   4   5   6   7   8   9   1   2   3   4   5   6   7   8   9  10   2   3   4   5   6   7   8   9  10  11   3   4   5   6   7   8   9  10  11  12   4   5   6   7   8   9  10  11  12  13  
 2   1   2   3   4   5   6   7   8   9   1   0   1   2   3   4   5   6   7   8   2   1   2   3   4   5   6   7   8   9   3   2   3   4   5   6   7   8   9  10   4   3   4   5   6   7   8   9  10  11   5   4   5   6   7   8   9  10  11  12  
 3   2   1   2   3   4   5   6   7   8   2   1   0   1   2   3   4   5   6   7   3   2   1   2   3   4   5   6   7   8   4   3   2   3   4   5   6   7   8   9   5   4   3   4   5   6   7   8   9  10   6   5   4   5   6   7   8   9  10  11  
 4   3   2   1   2   3   4   5   6   7   3   2   1   0   1   2   3   4   5   6   4   3   2   1   2   3   4   5   6   7   5   4   3   2   3   4   5   6   7   8   6   5   4   3   4   5   6   7   8   9   7   6   5   4   5   6   7   8   9  10  
 5   4   3   2   1   2   3   4   5   6   4   3   2   1   0   1   2   3   4   5   5   4   3   2   1   2   3   4   5   6   6   5   4   3   2   3   4   5   6   7   7   6   5   4   3   4   5   6   7   8   8   7   6   5   4   5   6   7   8   9  
 6   5   4   3   2   1   2   3   4   5   5   4   3   2   1   0   1   2   3   4   6   5   4   3   2   1   2   3   4   5   7   6   5   4   3   2   3   4   5   6   8   7   6   5   4   3   4   5   6   7   9   8   7   6   5   4   5   6   7   8  
 7   6   5   4   3   2   1   2   3   4   6   5   4   3   2   1   0   1   2   3   7   6   5   4   3   2   1   2   3   4   8   7   6   5   4   3   2   3   4   5   9   8   7   6   5   4   3   4   5   6  10   9   8   7   6   5   4   5   6   7  
 8   7   6   5   4   3   2   1   2   3   7   6   5   4   3   2   1   0   1   2   8   7   6   5   4   3   2   1   2   3   9   8   7   6   5   4   3   2   3   4  10   9   8   7   6   5   4   3   4   5  11  10   9   8   7   6   5   4   5   6  
 9   8   7   6   5   4   3   2   1   2   8   7   6   5   4   3   2   1   0   1   9   8   7   6   5   4   3   2   1   2  10   9   8   7   6   5   4   3   2   3  11  10   9   8   7   6   5   4   3   4  12  11  10   9   8   7   6   5   4   5  
10   9   8   7   6   5   4   3   2   1   9   8   7   6   5   4   3   2   1   0  10   9   8   7   6   5   4   3   2   1  11  10   9   8   7   6   5   4   3   2  12  11  10   9   8   7   6   5   4   3  13  12  11  10   9   8   7   6   5   4  
 2   3   4   5   6   7   8   9  10  11   1   2   3   4   5   6   7   8   9  10   0   1   2   3   4   5   6   7   8   9   1   2   3   4   5   6   7   8   9  10   2   3   4   5   6   7   8   9  10  11   3   4   5   6   7   8   9  10  11  12  
 3   2   3   4   5   6   7   8   9  10   2   1   2   3   4   5   6   7   8   9   1   0   1   2   3   4   5   6   7   8   2   1   2   3   4   5   6   7   8   9   3   2   3   4   5   6   7   8   9  10   4   3   4   5   6   7   8   9  10  11  
 4   3   2   3   4   5   6   7   8   9   3   2   1   2   3   4   5   6   7   8   2   1   0   1   2   3   4   5   6   7   3   2   1   2   3   4   5   6   7   8   4   3   2   3   4   5   6   7   8   9   5   4   3   4   5   6   7   8   9  10  
 5   4   3   2   3   4   5   6   7   8   4   3   2   1   2   3   4   5   6   7   3   2   1   0   1   2   3   4   5   6   4   3   2   1   2   3   4   5   6   7   5   4   3   2   3   4   5   6   7   8   6   5   4   3   4   5   6   7   8   9  
 6   5   4   3   2   3   4   5   6   7   5   4   3   2   1   2   3   4   5   6   4   3   2   1   0   1   2   3   4   5   5   4   3   2   1   2   3   4   5   6   6   5   4   3   2   3   4   5   6   7   7   6   5   4   3   4   5   6   7   8  
 7   6   5   4   3   2   3   4   5   6   6   5   4   3   2   1   2   3   4   5   5   4   3   2   1   0   1   2   3   4   6   5   4   3   2   1   2   3   4   5   7   6   5   4   3   2   3   4   5   6   8   7   6   5   4   3   4   5   6   7  
 8   7   6   5   4   3   2   3   4   5   7   6   5   4   3   2   1   2   3   4   6   5   4   3   2   1   0   1   2   3   7   6   5   4   3   2   1   2   3   4   8   7   6   5   4   3   2   3   4   5   9   8   7   6   5   4   3   4   5   6  
 9   8   7   6   5   4   3   2   3   4   8   7   6   5   4   3   2   1   2   3   7   6   5   4   3   2   1   0   1   2   8   7   6   5   4   3   2   1   2   3   9   8   7   6   5   4   3   2   3   4  10   9   8   7   6   5   4   3   4   5  
10   9   8   7   6   5   4   3   2   3   9   8   7   6   5   4   3   2   1   2   8   7   6   5   4   3   2   1   0   1   9   8   7   6   5   4   3   2   1   2  10   9   8   7   6   5   4   3   2   3  11  10   9   8   7   6   5   4   3   4  
11  10   9   8   7   6   5   4   3   2  10   9   8   7   6   5   4   3   2   1   9   8   7   6   5   4   3   2   1   0  10   9   8   7   6   5   4   3   2   1  11  10   9   8   7   6   5   4   3   2  12  11  10   9   8   7   6   5   4   3  
 3   4   5   6   7   8   9  10  11  12   2   3   4   5   6   7   8   9  10  11   1   2   3   4   5   6   7   8   9  10   0   1   2   3   4   5   6   7   8   9   1   2   3   4   5   6   7   8   9  10   2   3   4   5   6   7   8   9  10  11  
 4   3   4   5   6   7   8   9  10  11   3   2   3   4   5   6   7   8   9  10   2   1   2   3   4   5   6   7   8   9   1   0   1   2   3   4   5   6   7   8   2   1   2   3   4   5   6   7   8   9   3   2   3   4   5   6   7   8   9  10  
 5   4   3   4   5   6   7   8   9  10   4   3   2   3   4   5   6   7   8   9   3   2   1   2   3   4   5   6   7   8   2   1   0   1   2   3   4   5   6   7   3   2   1   2   3   4   5   6   7   8   4   3   2   3   4   5   6   7   8   9  
 6   5   4   3   4   5   6   7   8   9   5   4   3   2   3   4   5   6   7   8   4   3   2   1   2   3   4   5   6   7   3   2   1   0   1   2   3   4   5   6   4   3   2   1   2   3   4   5   6   7   5   4   3   2   3   4   5   6   7   8  
 7   6   5   4   3   4   5   6   7   8   6   5   4   3   2   3   4   5   6   7   5   4   3   2   1   2   3   4   5   6   4   3   2   1   0   1   2   3   4   5   5   4   3   2   1   2   3   4   5   6   6   5   4   3   2   3   4   5   6   7  
 8   7   6   5   4   3   4   5   6   7   7   6   5   4   3   2   3   4   5   6   6   5   4   3   2   1   2   3   4   5   5   4   3   2   1   0   1   2   3   4   6   5   4   3   2   1   2   3   4   5   7   6   5   4   3   2   3   4   5   6  
 9   8   7   6   5   4   3   4   5   6   8   7   6   5   4   3   2   3   4   5   7   6   5   4   3   2   1   2   3   4   6   5   4   3   2   1   0   1   2   3   7   6   5   4   3   2   1   2   3   4   8   7   6   5   4   3   2   3   4   5  
10   9   8   7   6   5   4   3   4   5   9   8   7   6   5   4   3   2   3   4   8   7   6   5   4   3   2   1   2   3   7   6   5   4   3   2   1   0   1   2   8   7   6   5   4   3   2   1   2   3   9   8   7   6   5   4   3   2   3   4  
11  10   9   8   7   6   5   4   3   4  10   9   8   7   6   5   4   3   2   3   9   8   7   6   5   4   3   2   1   2   8   7   6   5   4   3   2   1   0   1   9   8   7   6   5   4   3   2   1   2  10   9   8   7   6   5   4   3   2   3  
12  11  10   9   8   7   6   5   4   3  11  10   9   8   7   6   5   4   3   2  10   9   8   7   6   5   4   3   2   1   9   8   7   6   5   4   3   2   1   0  10   9   8   7   6   5   4   3   2   1  11  10   9   8   7   6   5   4   3   2  
 4   5   6   7   8   9  10  11  12  13   3   4   5   6   7   8   9  10  11  12   2   3   4   5   6   7   8   9  10  11   1   2   3   4   5   6   7   8   9  10   0   1   2   3   4   5   6   7   8   9   1   2   3   4   5   6   7   8   9  10  
 5   4   5   6   7   8   9  10  11  12   4   3   4   5   6   7   8   9  10  11   3   2   3   4   5   6   7   8   9  10   2   1   2   3   4   5   6   7   8   9   1   0   1   2   3   4   5   6   7   8   2   1   2   3   4   5   6   7   8   9  
 6   5   4   5   6   7   8   9  10  11   5   4   3   4   5   6   7   8   9  10   4   3   2   3   4   5   6   7   8   9   3   2   1   2   3   4   5   6   7   8   2   1   0   1   2   3   4   5   6   7   3   2   1   2   3   4   5   6   7   8  
 7   6   5   4   5   6   7   8   9  10   6   5   4   3   4   5   6   7   8   9   5   4   3   2   3   4   5   6   7   8   4   3   2   1   2   3   4   5   6   7   3   2   1   0   1   2   3   4   5   6   4   3   2   1   2   3   4   5   6   7  
 8   7   6   5   4   5   6   7   8   9   7   6   5   4   3   4   5   6   7   8   6   5   4   3   2   3   4   5   6   7   5   4   3   2   1   2   3   4   5   6   4   3   2   1   0   1   2   3   4   5   5   4   3   2   1   2   3   4   5   6  
 9   8   7   6   5   4   5   6   7   8   8   7   6   5   4   3   4   5   6   7   7   6   5   4   3   2   3   4   5   6   6   5   4   3   2   1   2   3   4   5   5   4   3   2   1   0   1   2   3   4   6   5   4   3   2   1   2   3   4   5  
10   9   8   7   6   5   4   5   6   7   9   8   7   6   5   4   3   4   5   6   8   7   6   5   4   3   2   3   4   5   7   6   5   4   3   2   1   2   3   4   6   5   4   3   2   1   0   1   2   3   7   6   5   4   3   2   1   2   3   4  
11  10   9   8   7   6   5   4   5   6  10   9   8   7   6   5   4   3   4   5   9   8   7   6   5   4   3   2   3   4   8   7   6   5   4   3   2   1   2   3   7   6   5   4   3   2   1   0   1   2   8   7   6   5   4   3   2   1   2   3  
12  11  10   9   8   7   6   5   4   5  11  10   9   8   7   6   5   4   3   4  10   9   8   7   6   5   4   3   2   3   9   8   7   6   5   4   3   2   1   2   8   7   6   5   4   3   2   1   0   1   9   8   7   6   5   4   3   2   1   2  
13  12  11  10   9   8   7   6   5   4  12  11  10   9   8   7   6   5   4   3  11  10   9   8   7   6   5   4   3   2  10   9   8   7   6   5   4   3   2   1   9   8   7   6   5   4   3   2   1   0  10   9   8   7   6   5   4   3   2   1  
 5   6   7   8   9  10  11  12  13  14   4   5   6   7   8   9  10  11  12  13   3   4   5   6   7   8   9  10  11  12   2   3   4   5   6   7   8   9  10  11   1   2   3   4   5   6   7   8   9  10   0   1   2   3   4   5   6   7   8   9  
 6   5   6   7   8   9  10  11  12  13   5   4   5   6   7   8   9  10  11  12   4   3   4   5   6   7   8   9  10  11   3   2   3   4   5   6   7   8   9  10   2   1   2   3   4   5   6   7   8   9   1   0   1   2   3   4   5   6   7   8  
 7   6   5   6   7   8   9  10  11  12   6   5   4   5   6   7   8   9  10  11   5   4   3   4   5   6   7   8   9  10   4   3   2   3   4   5   6   7   8   9   3   2   1   2   3   4   5   6   7   8   2   1   0   1   2   3   4   5   6   7  
 8   7   6   5   6   7   8   9  10  11   7   6   5   4   5   6   7   8   9  10   6   5   4   3   4   5   6   7   8   9   5   4   3   2   3   4   5   6   7   8   4   3   2   1   2   3   4   5   6   7   3   2   1   0   1   2   3   4   5   6  
 9   8   7   6   5   6   7   8   9  10   8   7   6   5   4   5   6   7   8   9   7   6   5   4   3   4   5   6   7   8   6   5   4   3   2   3   4   5   6   7   5   4   3   2   1   2   3   4   5   6   4   3   2   1   0   1   2   3   4   5  
10   9   8   7   6   5   6   7   8   9   9   8   7   6   5   4   5   6   7   8   8   7   6   5   4   3   4   5   6   7   7   6   5   4   3   2   3   4   5   6   6   5   4   3   2   1   2   3   4   5   5   4   3   2   1   0   1   2   3   4  
11  10   9   8   7   6   5   6   7   8  10   9   8   7   6   5   4   5   6   7   9   8   7   6   5   4   3   4   5   6   8   7   6   5   4   3   2   3   4   5   7   6   5   4   3   2   1   2   3   4   6   5   4   3   2   1   0   1   2   3  
12  11  10   9   8   7   6   5   6   7  11  10   9   8   7   6   5   4   5   6  10   9   8   7   6   5   4   3   4   5   9   8   7   6   5   4   3   2   3   4   8   7   6   5   4   3   2   1   2   3   7   6   5   4   3   2   1   0   1   2  
13  12  11  10   9   8   7   6   5   6  12  11  10   9   8   7   6   5   4   5  11  10   9   8   7   6   5   4   3   4  10   9   8   7   6   5   4   3   2   3   9   8   7   6   5   4   3   2   1   2   8   7   6   5   4   3   2   1   0   1  
14  13  12  11  10   9   8   7   6   5  13  12  11  10   9   8   7   6   5   4  12  11  10   9   8   7   6   5   4   3  11  10   9   8   7   6   5   4   3   2  10   9   8   7   6   5   4   3   2   1   9   8   7   6   5   4   3   2   1   0  

 0   1  11   1   1   1   1   1   3   0   0   1   0   0   0   1   9   1  14   0  90   0  67   1   1   0   1   3   0  18  28   1  13   0   1  11   0   0   0   1   0   1   0   6   0  23   0   1   0   1   1   2   0  44   0  60   1  20   0   0  
 0   0   1   1   1   0   0   0   0  15   1  70   1   0   1   0   0   1   2   1  35   0   1   0   0   0   1   2   4   1   0   0   0   1   1   0   0   1  17   1   0   0   1   0   2   0   1   1   1  16   0  70   1  42   1   7   1   0   1   0  
 0   6   0   1   1   1   9   0   1   8   1  36   3   1   0   1   4   0   1  14   0   1   0   0   4   1   0   0   1  18   0   0  18   1   0   1   0   1   0   0   0  11   7   1   2   0   1   3   1  25   3   0   0   0   2   0  18  20   0   0  
 1   0   8   0   0  17   0   0   4   1   8   0   1   0   1  61   1   1  27   0   0   8   0   1   0   1   1   0   1  14  29   1   0   1   0   0   0   1   0   0   0   8   0   1   1   7   0   0   2   1   0   0  70  12   1  68   1   0   0   0  
 2   1   1   3   0   0   0   1   0   1  51   1   0   1  41  19   0   1   1   0   0  23   0   0   0   1   1   1   1   1  84   1   1   0   1   1   1   2   8   0  24   0  42   0   1   1   1   0  12   0  49   1   0   2   0   0   0   0   0   1  
 1   1   3   0  14   0   1   1   1  23   1  11   1   1   1   0   1   2   1   0   0   1   0   0   0   0   0   1   1  71   0   1   2   1   0   0   1   0   1   0   1   1   0  20   1   0   1   0   1   0   1   0   0   1   1   1   1   1   1   0  
 1   1  37   1  51   0   0   1  20   0   3   0   0   1   1   0  12   0   0   0   1   0   1   1   0   0   1   1   0  50   0  58   0   1   1   1   0   4   0   1   1   0  17  14   0   0   0   0   1   1   0   0   0   8   0   6   0  94   1   0  
22   1  18   0   0   0   0   0  48   0  15  52   1   6   0   1   0   1   0   0   0   0   1  70   1   0   0  77   0   1   1   0   1   1   1   0   1   0   1   0   4   0   0   0   1   0  15  33   0   0   0   1   4   1  15   1   1   0   1  50  
 0  50   0   1  90   1   0  73   0   2   1   0   0   0   5   1   1   2   0   1   0  54   3   1   1   1  43   1   0   1   0  18   1   3  54   0   1   1   0  34   0   0   0   1   0   5   0   1  41   2   1  77   0   0   7  34   0   1   1  45  
 1   1   0   0   1   1   1   1   0   0  13   1   1   1   0   0   1   2   0   0   0  14   0   1   1   1   0   0   0   0   3   1   1   0   0   3   0   1   1   1   0   1   1   0   1   0   0  14   1   0   1   1   0   1   0   0  41   0   7   0  
 1  18   0   1  19   0   1   1   1   1   0   1   0   1  26   1   1   0   1   0  26   1   0   1   0   1   1   2  14  40   1   0   0   0  49   1   5   0   1   0   1  21   3   2   0   0  31   1  48   0   1   1   0   1   3  60   1  79   1  33  
 1  69   0  36   6   1  27   0  28   1   1   0  48  22   0  17   0   0  10   0   0   0   3   1  58   1  57   0   0   1   0   1  41   1   0   0   1   1   1   0   0   1   0   1  43   0   0   1   1   0   0  15   1   3   3   0   0   0   8   1  
 0  60   0   1   1   1   0   0  72  50   1   1   0   0  12   1  69   1   6  42   0  15   1   1   1   0   1   0   1   1   0   2   0   0   9  69   1  19  31   0  70  56   1   0   1   0   1   1   0   0   0   0   1   0   1   0   1   0   0   1  
 1   1   0   0   0   6   0   1  10   1   5   0   0   0   1   0   1   0   0   1   0  11   4   0   1   0   0   1   1   1   0  32   0   0   1   1   0   1  23   1  13   7   1   4   0   0   2   0   0   1   1   3   0   0  17   1  35   1  97   1  
 0   0   9   1  39   1  91   0  18  42   0   1   1   1   0   3  68   1   0   6   1   1   0   0   1   1  25  89   0   0   0   1   0   1   1  13   6   1  11  34  32   2   1   0   0   0   1   0  29   0   0   1   0  43   1  27   0   1   0   0  
 1   1   0   1   0   1   0   0   1  22   0   0   0   1   0   0   1   1   0   1   1   1   0   1  27   9   4   1   0   0   1   1   1   0   0   0   1   1  16   0  19   1   0   0   1   1   0   0   6   0   1   5   3  49   1   1  48   0   0   0  
 0   0   1  75   1   1   0   1   0  16   0   0   8   2   1   3   0   1   0   0   0   0   1   1   0   0  60  34   3   0   4  57   0   6   1   1   0   4  14   1   1   0  57   1   0  25  81   1  68   0   1   0  22   0   3   1   0   3   1   1  
 2   9   0   0   1   0   1   5   0   1  57  12   0   1   1  80   4   0   7   0   0   0   2  16  39   1   0   1  34   0   0   0  74  85   1   0   1  70   1   0   6   0   0   1   6   0   0   0   0   0   1   0   5   1  12   1  30   0   1   1  
 0   1  25   1   1  45   1  76   0   0  12   0   0  24   1   1   0   1   0  19   0   0   0  17   1   1   0   0  23   1   1   1   1   1   1   0   6   0   2   1   1   1   0   1   2   6   0   0  72  83   0   0   1   0   1   1   0   0   0  66  
 0   1   0   0   0   0   0   0   0   1  30   1   1   0   1   1   0   2   0   0   1   0   1   0  38   1   3   0  19   0   0  56   1   0  12  15   1   1   1   1   0   0   0   1  44   0   6   0   0   1   0   0   1   1   4   1  79   1   0  33  
 0   1   6   0   0  49   0   7   4   1  54   0   0  90   0   3   1   1   0   0   0   0   0  12   2   0   0   1   1   0   1   5   0   1   1   5   7   0  57   1   0   0   1   1   0   4   1   0   4   0   1  26   0  85  51  15   0   0  78   8  
 1   0   0   0   1   3  56   1   0  13   1   0   1   0   0   0   1   1   4  31  30   0   0   0   0   0   0  12   0   0   9   0   0   1   6  11  23  11   3   3   1   1  57   1  94   0  69   1   9   0   1   0   1   0  27   0  17   1   0   1  
 1  22  80   3  14   0   0   0   4  12   0   1   0   1  11  78   1   1  13   1   0   1   0   0   0   3  32   1   1   0   0   0   5   1   1   6   5   1  23   1   8   1   0   0   7   0   0   6   0   1   0   0   1   0   1   0  14   0   0   3  
 0   3   0   0   1   1   0   1   1   1   0   1  10   1   0   1   0   0   3   1   1   1   3   0   1   6  20   1   0   1   0  61  20  14  22   0  82   0   0   0   1   1   0   1   3   1   1   0   0   6   0   0   1   0   6   1   1   1   0   2  
 1   1  21   0   1   0  63   0   1   1   2   1  11   1   0  56   1   0   1   1   1  53  11   1   0   0   0  36  93   0   1   1   1   1   4   1   0   0  28  23  39   0  19  68   0  12   0   0   0  41   0   1   1   4  28   0   9   1   0   1  
 1   1   0   5   1  43   1  53   0   0   1   0   0   1   0  32   0   1   1   0   0   1   0   1  17   0   0   0   0  16  52   0   1   0   1   3   1   0  13   1   0   0   1   1   0  73  16  34   1   0  85   1  27   1   1   0   0  21   9   1  
 1   0   8   0   0   0   1   6   1   0   0   9   0   9   0   1   0   2   0   0   0  34   1   1  68   1   0   0   1   0   0   1   0  36   1   0   1   1   0  73   0   0   4   0   1   0  66   0   1   0   0   0   0   1  12   1   5   3   0   0  
 1   0   1   0   1   1   1  79   7  99   1  95   4   1   0  83   1   1   1   2   0  34   0   1   0   0   0   0   0   0  10   4   0   0   0   1   1  20   7  27   1  54   1  17   1   1  10   0  47   1   1   0   0   0   6   1   1   1  23   0  
 0   0   0  57   3   0   0   1   0  21   0   5   0   0   0   2  17   1   1   0   0   0   0   1   0   6  43   0   0   1   9   0   2   0   0   1   1   1   1   1  17  14  18   0   0   3  55   0   1   0   1  70   0   1   0   1   1   0   2   1  
 1  82   1   1  10   0   0   5   7   1   0   0   1  16   0   0   0   1  90  51   5  85   1   1   1   0  22   0   2   0  22   1   1   1   0   1   1   1   0  19   1   1   1  83   1   1   0   1   1   1   0   1   1   1   1   0   1   0   1   1  
 1   0   0   0   0  12   0  29   0   1   1   1   1   0   3   0  70   0   1   0   0   0   0   1   0   1   1   1   0   1   0   0  56   1   1   1   0   0   0  34   0   1   0   0   0   0  25   1   0   0   0   1   8   9   1   6   1   0  94   0  
 1  28   0   1   0   1   2  71  40   3   0   0   1   0   1  96  22   0   0   0   0   1   2   1   1   0   0   1  86   0  42   0   0   0  72  61   0  78   0   0   1   0   0  74   0   0   1   0   0   0   0   0   0   0   1   1   6  32   0   0  
 1   1   1   1   0  13  90   0   0   1  73   0   0  14   4   1  31   0   1   0   0   5  23   0  70   1   0   0   1   0   1  19   0   0   0   0   0  46  26   1   0   1   0   1   0   0   1   1   7   1   0   1   0   0   1  51   1   1   1  43  
 0   1  84   1   1  68   1  48   1  71   1   2  26  26  85   1   1   1   1   0   1   1   1   0   0   2   4   0   0   0   1   1   1   0   0  12   1   0   0  92  23   0   1   1  16   1   0   1  54   1   1   0  73   1   0   0   1   0   0   1  
 1   0   0   0  57   1   0   0   1   3  86   0   0   0  33   1   0   1   1   1   1   0   1  61   0   0   0  63   1   1   0   0  62   0   0   0   0   1   1   0   0   1   0  55  17   5   7  20   4   0   1   1   1  12   1   6  57   0   0   0  
17   0   0   1   0   0   1   0   0   1   0  25   2   1   0   1   0   0   1   2   1   0   1  38  34   1   1   1   0   1   1   1   0  85   1   0   0   4   0   0   2   1   1  70   5   1  55   0   0   1   1   0   1   1   1  55   1   5   0   1  
 1   1   0   1  29   1   1  34  18   0   0   0   0   0   0   0   1  66   0  31   1   0   1   1   1   0   0  18  70   1   0   4   0   0  16   1   0   0  34   0   0   1   2   4   0  11   1   7   0   0   1   0   1   7  66   1  17   7   1   1  
 1   0   2   0   0   1   1   3   0   2   2   1   3   1  16   0   0   0   0   0   0   1   0  27   1   0   1   0   3   0   0   1  89  30   0   0  59   0  27   0   1   1   0   0   1  17  10   1   3  55  31   1   0   0   0  73   0   0   0   7  
 1   1   0   0   1   0   1   1   1   1   0   2   0   0   0   3   1   0   1  35   0   0   1   0   1   0  13   0   0   0   0   0   1   0   1  45   0   1   0   4   1   1   1   1   1   0   0  81   1  19   1   0   1   0   3  67   4   1   0   0  
 1   1   0   0   0   1   1  25  48   6   1   0   1   1  69   9   0   0   0   1  79   0   1   9   1   1   0  12   1   0  24  17  56   0   0   1  18   0   1   0   0   1   1  29   2   0   0   0   0  40   0  72   0   0   0   1  93   1   0   0  
 1   0  65   2   1   1   0   1  80   1   0   1   1   0   0   1   0   0   0   1   1  46   1   0   0   5  14   0  17   8   1   0   0   1   1  30   0   0   1   1   0   0   1   0   0   0   0   1   0   6   0   0   1   1   0   0   1   1   1   0  
 1   0   1   1   0   0  29   0  67   0   0   1   0   0  20   1   1   1   0   0   0   0   0   1   1   1   1  58   1   0   1   0   1   0   0   0  29   1   0   1   1   0  83   0   1   1   0  14   1   0   0  38   1   7   0   0   0   5  56   1  
 0  12  39   1   4   0   1   1   1   0   0   1   0  25   1   8   0   1   1   4   1  16   1   1   0  81   1  47   6   1   0  66   1   1   0   1   1  33   1   0   0  23   0   1  32   4   0   0   1  75   1  15   1   1  34   1   5   0  77   1  
 1   1  42   0   0   8   0   0   1   1   0   1   1   1   0   1   0   0   3   0   1   0   0   0   1   0   1   1   0   0   1   0  66   0   0   7   0   0  31   0   2   0   1   0  55   0   0   1   1   1   0   3   0   4  83   0   1   0  30  18  
 1   1   1   0   6   1   1   0   1   0   0   2   1   1   0   1   1   1   0  30   1   0   0   0   0   5   1   0   1   0  17   1  94   0   0  73   1   2   0   1   1   0   0   6   0   1   1   1   0  80  31   0   1   0   0   1   1   0   1   1  
 1  16   4  12   0  24   1   1  40   4   1   7   0   0   1   1   0   0   0   0   0   0   0   1   0  62   1   1   1   0  14   1   2   0   0  21   0   0  53   0   1   0   1   1   0   0   0   1   0   1   1   1   0   0   0   0   1   1   0   6  
 5   0   0   0  45   0   1   1   0   1  26   1   0   0  18   0   6   1   0   0   1   1   0   1   1   1   0   0   1   0   1   0   1   3   1   0  11   1   1   1   1   0   0   0   1   8   0   0   6   1   8  68   8   1  47   0  17   1   1   1  
 1   0   3   1   1   3   0   0   0   0   0  39   1   1  96   0   0   8   0   1   1   0   0   1   1   1  34   0   1   1   0   0   0   0   0  77   0   1   0   2  52   0   0   0   1   0   0   0   3   1   1   0   3   0   0   0   0   0   0   0  
 0   1   1   0   0   1   0  61   1   1   1   6   1   1   1  37   1   0   1   0   0   1   0   0   0   0   0   0   3   0   0   1   0   8   0   0   0   1   0   0   0   9  13   1   1   0  63   0   0   1   1   0   0   0   0   1   0   1   0   0  
 1   0   1   0  15   8   4  79  26   0   1   0  78   1   0   0   0   1   0  59   1   0   0   0   0   0   0   0   0   0   9   0  71   1   0   0   1   1   1   1   0  11   0   0   1   0   0   1   1   0  42   0   0   1   1  12   1  29  74   0  
 0   3   0   0  52   0   1   0   1   0   0   7   0   5   1   1   0   1   6   0   0   0   0  78  85   4   0  63   0   0   0   0   0  15  30   1   0  11   0   0   0   0  13   1   1   0   0   0   1   0   0  59   1   0   2   0   0   1   1   0  
 0   1   0   0   5   1  22  10  95  66   1   1   0  83   0  85   1   0   0   1   0   0   1   0  29   0   3   0  66   1  19   1   1   0   1   0  91   1   2  45   0   1   1  84  13   0   0   0  99   4   1   0   0   0   0   0  57   0   0   0  
19   7   0   9   0   1  10   1   1   1   1   0   0  13   1   1   0   8   1   8   1   1   1   0  51   0   1   2   9   0  63   0   1   1  31   1  22   0   0  61   1   1   4   3   0   0   1  54   1   1   0   0   0   6   1   0   3   0   8  57  
 0  10   0   8   1   1   0  56   1  12   0   1   2   0   0  14   0   1   1   1   0   0  11  11  99   0   0   0   0  14   1   0   0   1   0   0   0   1  56   1   1   0   1   1   1   1   0   1   1   1   0  47   1   0   2   1   0   0   0   0  
 1   0   0   1   0   1   1   0   0  59   1   0   0   1   0   0   0   0   0   0   1   0  29   0   0   0   0   0   0  16   0   0   1   0   1   5   1   0   1   1   0   0  24   0   2   0   1   2   0   0   0   1   0   1   0   1   0   1   1   7  
 1  21   0  92   7   1   1  27  20   0   7   0   0   1   0   1   6  18   0   1   0  12   5   1   0   1   1  44   1  59   1   1   0   5   0   0   0   1   0   1   1   0   1   0  22   0   0   0   0   2   1  10   1   1   1   0   1   0   0   0  
 0   1   1   1   1   1   0  11   0   1   1   1   0   0  15   0   0   0   1   0   1   1   0   6  32   1   0   0   0   0   0   0   0   0   1   0   0   1   1   1   1  66   0   4   1   0   1   6   0   1   0   1   0  20   0   1   0   3  23   0  
 0   0   0   0   1   1   1   1   1  47   0   0   9   0   0   1   8   0  13   0  49   8   1   1   0   0  67   0   1  18   1   1  52   0   1   0   0  11   0   0   8   0   1  16   0   1   0  56   2   1   0   0   1   1   0   0   0   0   1   1  
 0   1  45   3  24   0   6   0   0   0   0   1   0   2   1   1   0   0   1   0   0   1   0   0   8   0  93   1   0   1   0   1  15   1   1   0   1   0   0   4   1   1  44   1   0  57   0   1   0   1   0   1  91   1   1   1   1   1   0   1  
 2   0  15   8   0   1   1   0   1   1  35   0   2   4   1   1   0   1   0   0   1   0   1   0  28   0   0   1  17  37   1   1   0   0   0   1  91   0   1   0   0   1   0   1   0   1   1   0   1  74   0   0   1  16  22   0  48   1   0   0  
